max_width = 30;
n_blocks = 28;
width = [13, 11, 11, 8, 5, 5, 5, 11, 4, 5, 5, 3, 3, 3, 11, 7, 5, 8, 4, 2, 3, 5, 4, 5, 3, 4, 2, 3];
height = [21, 17, 14, 14, 21, 18, 18, 7, 18, 14, 14, 21, 18, 17, 4, 6, 7, 4, 7, 12, 7, 4, 5, 3, 5, 3, 6, 4];
